set machine := 1 2 3 4 5 6;

param a := 
1	14
2	10
3	9
4	6
5	10
6	25;


param lb := 2;

param ub := 6;

param f :
	1	2	3	4	5	6:=
1	0	2.4	0	0	0	0
2 	2.4	0	0	0	0	0
3 	0	0	0	12	0	0
4	0	0	12	0	0	12
5	0	0	0	0	0	6
6	0	0	0	12	6	0;		

param lfx := 15;

param lfy := 5;

param M := 10000;

